4 
5  42 59 
6  14 29 44 59 
7  14 26 41 56 
8  11 26 41 56 
9  11 26 41 56 
10  11 26 41 56 
11  11 26 41 56 
12  11 26 41 56 
13  11 27 44 59 
14  14 29 44 59 
15  14 28 43 58 
16  13 28 43 58 
17  13 28 43 58 
18  13 28 43 58 
19  13 27 41 56 
20  11 28 43 58 
21  13 28 43 58 
22  13 28 43 58 
23  12 27 46 
0  03 
1 
